PROBLEM NAME: small_8_Uncorrelated_n14_m39_c1
KNAPSACK DATA TYPE:
DIMENSION: 14
NUMBER OF ITEMS: 39
CAPACITY OF KNAPSACK: 1683
MIN SPEED: 0.1
MAX SPEED: 1.0
RENTING RATIO: 1.0
EDGE_WEIGHT_TYPE: CEIL_2D
NODE_COORD_SECTION	(INDEX, X, Y): 
1	5	59
2	446	583
3	501	781
4	879	262
5	387	70
6	190	826
7	955	865
8	59	919
9	805	172
10	392	932
11	709	233
12	903	881
13	733	579
14	40	596
ITEMS SECTION	(INDEX, PROFIT, WEIGHT, ASSIGNED NODE NUMBER): 
1	439	544	2
2	202	615	2
3	376	869	2
4	503	768	3
5	991	514	3
6	736	595	3
7	607	323	4
8	987	217	4
9	414	565	4
10	177	11	5
11	118	356	5
12	685	525	5
13	893	82	6
14	306	243	6
15	178	888	6
16	375	830	7
17	659	649	7
18	801	118	7
19	383	626	8
20	536	717	8
21	450	776	8
22	342	6	9
23	600	461	9
24	838	163	9
25	848	144	10
26	34	570	10
27	463	558	10
28	917	756	11
29	564	878	11
30	799	382	11
31	714	327	12
32	965	929	12
33	326	387	12
34	229	952	13
35	706	207	13
36	578	159	13
37	489	356	14
38	688	98	14
39	442	358	14
